/*********************************************
 * OPL 20.1.0.0 Data
 * Author: anton
 * Creation Date: 18 nov 2022 at 18:29:58
 *********************************************/


// 	PER GLI INSIEMI
macchine = {1, 2, 3, 4};
componenti = {1, 2, 3, 4};

// 	PER LE MATRICI
tempi=[[30, 50, 15, 25]
	[40, 25, 40, 60]
	[30, 30, 50, 30]
	[10, 20, 80, 30]];
	
					
